(set-logic QF_NRA)
(set-info :source |Benchmarks generated from hycomp (https://es-static.fbk.eu/tools/hycomp/). BMC instances of non-linear hybrid automata taken from: Alessandro Cimatti, Sergio Mover, Stefano Tonetta, A quantifier-free SMT encoding of non-linear hybrid automata, FMCAD 2012 and Alessandro Cimatti, Sergio Mover, Stefano Tonetta, Quantier-free encoding of invariants for Hybrid Systems, Formal Methods in System Design. This instance solves a BMC problem of depth 0 and uses the encoding obtained with quantifier elimination using redlog encoding. Contacts: Sergio Mover (mover@fbk.eu), Stefano Tonetta (tonettas@fbk.eu), Alessandro Cimatti (cimatti@fbk.eu).|)
(set-info :smt-lib-version 2.0)
(set-info :category "industrial")
(set-info :status unsat)
;; MathSAT API call trace
;; generated on Mon Mar 19 10:47:49 2012
(declare-fun b.EVENT.0__AT0 () Bool)
(declare-fun b.EVENT.1__AT0 () Bool)
(declare-fun b.counter.2__AT0 () Bool)
(declare-fun b.x__AT0 () Real)
(declare-fun b.event_is_timed__AT0 () Bool)
(declare-fun b.time__AT0 () Real)
(declare-fun b.g__AT0 () Real)
(declare-fun b.delta__AT0 () Real)
(declare-fun b.counter.3__AT0 () Bool)
(declare-fun b.speed_y__AT0 () Real)
(declare-fun b.y__AT0 () Real)
(declare-fun b.counter.0__AT0 () Bool)
(declare-fun b.counter.1__AT0 () Bool)
(assert (let ((.def_67 (* b.x__AT0 b.x__AT0)))
(let ((.def_63 (* 5.0 b.delta__AT0)))
(let ((.def_64 (* b.delta__AT0 .def_63)))
(let ((.def_65 (* (- 1.0) .def_64)))
(let ((.def_70 (+ .def_65 .def_67)))
(let ((.def_61 (* b.delta__AT0 b.speed_y__AT0)))
(let ((.def_71 (+ .def_61 .def_70)))
(let ((.def_72 (+ b.y__AT0 .def_71)))
(let ((.def_73 (<= 0.0 .def_72)))
(let ((.def_109 (not .def_73)))
(let ((.def_90 (* (- 1.0) b.speed_y__AT0)))
(let ((.def_91 (* 10.0 b.delta__AT0)))
(let ((.def_92 (+ .def_91 .def_90)))
(let ((.def_93 (<= .def_92 0.0 )))
(let ((.def_110 (and .def_93 .def_109)))
(let ((.def_102 (+ b.y__AT0 .def_67)))
(let ((.def_107 (<= 0.0 .def_102)))
(let ((.def_104 (<= b.speed_y__AT0 0.0 )))
(let ((.def_108 (or .def_104 .def_107)))
(let ((.def_111 (or .def_108 .def_110)))
(let ((.def_103 (<= .def_102 0.0 )))
(let ((.def_105 (and .def_103 .def_104)))
(let ((.def_97 (<= 0.0 .def_92)))
(let ((.def_98 (not .def_97)))
(let ((.def_95 (= .def_72 0.0 )))
(let ((.def_96 (not .def_95)))
(let ((.def_99 (or .def_96 .def_98)))
(let ((.def_94 (or .def_73 .def_93)))
(let ((.def_100 (and .def_94 .def_99)))
(let ((.def_77 (* 20.0 b.x__AT0)))
(let ((.def_78 (* b.x__AT0 .def_77)))
(let ((.def_75 (* b.speed_y__AT0 b.speed_y__AT0)))
(let ((.def_79 (+ .def_75 .def_78)))
(let ((.def_80 (* 20.0 b.y__AT0)))
(let ((.def_82 (+ .def_80 .def_79)))
(let ((.def_85 (<= .def_82 0.0 )))
(let ((.def_86 (not .def_85)))
(let ((.def_101 (or .def_86 .def_100)))
(let ((.def_106 (or .def_101 .def_105)))
(let ((.def_112 (and .def_106 .def_111)))
(let ((.def_83 (<= 0.0 .def_82)))
(let ((.def_84 (not .def_83)))
(let ((.def_113 (or .def_84 .def_112)))
(let ((.def_58 (<= 0.0 b.delta__AT0)))
(let ((.def_59 (not .def_58)))
(let ((.def_74 (or .def_59 .def_73)))
(let ((.def_114 (and .def_74 .def_113)))
(let ((.def_38 (not b.EVENT.0__AT0)))
(let ((.def_36 (not b.EVENT.1__AT0)))
(let ((.def_55 (and .def_36 .def_38)))
(let ((.def_56 (not .def_55)))
(let ((.def_115 (or .def_56 .def_114)))
(let ((.def_49 (<= b.g__AT0 10.0 )))
(let ((.def_48 (<= 8.0 b.g__AT0)))
(let ((.def_50 (and .def_48 .def_49)))
(let ((.def_43 (* (- 1.0) b.x__AT0)))
(let ((.def_44 (* b.x__AT0 .def_43)))
(let ((.def_45 (<= .def_44 b.y__AT0)))
(let ((.def_51 (and .def_45 .def_50)))
(let ((.def_39 (or .def_36 .def_38)))
(let ((.def_6 (not b.counter.0__AT0)))
(let ((.def_4 (not b.counter.1__AT0)))
(let ((.def_29 (or .def_4 .def_6)))
(let ((.def_33 (or b.counter.3__AT0 .def_29)))
(let ((.def_30 (or b.counter.2__AT0 .def_29)))
(let ((.def_9 (not b.counter.2__AT0)))
(let ((.def_28 (or .def_6 .def_9)))
(let ((.def_31 (and .def_28 .def_30)))
(let ((.def_12 (not b.counter.3__AT0)))
(let ((.def_32 (or .def_12 .def_31)))
(let ((.def_34 (and .def_32 .def_33)))
(let ((.def_40 (and .def_34 .def_39)))
(let ((.def_52 (and .def_40 .def_51)))
(let ((.def_25 (= b.y__AT0 10.0 )))
(let ((.def_21 (= b.x__AT0 0.0 )))
(let ((.def_17 (= b.time__AT0 0.0 )))
(let ((.def_19 (and .def_17 b.event_is_timed__AT0)))
(let ((.def_22 (and .def_19 .def_21)))
(let ((.def_26 (and .def_22 .def_25)))
(let ((.def_7 (and .def_4 .def_6)))
(let ((.def_10 (and .def_7 .def_9)))
(let ((.def_13 (and .def_10 .def_12)))
(let ((.def_27 (and .def_13 .def_26)))
(let ((.def_53 (and .def_27 .def_52)))
(let ((.def_14 (not .def_13)))
(let ((.def_54 (and .def_14 .def_53)))
(let ((.def_116 (and .def_54 .def_115)))
.def_116))))))))))))))))))))))))))))))))))))))))))))))))))))))))))))))))))))))))))))))))))))))))
(check-sat)
(exit)
